p wcnf 2000 200 1
1 1 0
1 2 0
1 3 0
1 4 0
1 5 0
1 6 0
1 7 0
1 8 0
1 9 0
1 10 0
1 11 0
1 12 0
1 1 1 1 1 1 1 1 1 1 1 1 0
1 2 2 2 2 2 2 2 2 2 2 2 0
1 2 2 2 2 2 2 2 2 2 2 2 0
1 2 2 2 3 3 3 3 3 3 3 3 0
1 3 3 3 3 3 3 3 3 3 3 3 0
1 3 4 4 4 4 4 4 4 4 4 4 0
1 4 4 4 4 4 4 5 5 5 5 5 0
1 5 5 5 5 5 5 6 6 6 6 6 0
1 6 6 6 6 6 6 6 6 6 6 6 0
1 6 6 6 6 6 6 6 7 7 7 7 0
1 7 7 7 7 7 7 7 7 7 7 7 0
1 7 7 7 7 7 7 7 8 8 8 8 0
1 8 8 8 8 8 8 8 8 8 8 8 0
1 8 8 8 8 8 8 8 8 9 9 9 0
1 9 9 9 9 9 9 9 9 9 9 9 0
1 9 9 9 9 9 9 9 9 9 9 9 0
1 9 10 10 10 10 10 10 10 10 10 10 0
1 10 10 10 10 11 11 11 11 11 11 11 0
1 11 11 11 11 11 11 11 11 11 11 11 0
1 11 11 11 11 12 12 12 12 12 12 12 0
1 12 12 12 12 12 12 12 12 12 12 12 0
1 13 13 13 13 13 13 13 13 13 13 13 0
1 13 13 13 13 13 13 13 13 13 13 14 0
1 14 14 14 14 14 14 14 14 14 14 14 0
1 15 15 15 15 15 15 15 15 15 15 15 0
1 15 15 15 15 15 15 15 16 16 16 16 0
1 16 16 16 16 16 16 16 17 17 17 17 0
1 17 17 17 17 18 18 18 18 18 18 18 0
1 18 18 18 18 19 19 19 19 19 19 19 0
1 19 19 19 20 20 20 20 20 20 20 20 0
1 20 20 20 20 20 20 20 20 20 20 20 0
1 20 20 20 20 21 21 21 21 21 21 21 0
1 21 21 21 21 21 22 22 22 22 22 22 0
1 22 22 22 22 22 22 22 22 22 22 22 0
1 22 22 22 22 22 23 23 23 23 23 23 0
1 23 23 23 23 23 23 23 23 23 23 23 0
1 24 24 24 24 24 24 24 24 24 24 24 0
1 24 24 24 24 24 25 25 25 25 25 25 0
1 25 25 25 25 25 25 25 25 26 26 26 0
1 26 26 26 26 26 26 26 26 26 26 26 0
1 27 27 27 27 27 27 27 27 27 27 27 0
1 27 27 27 27 27 27 27 27 27 27 28 0
1 28 28 28 28 28 28 28 28 28 28 28 0
1 28 28 28 29 29 29 29 29 29 29 29 0
1 29 29 29 29 29 29 29 29 29 29 29 0
1 29 29 29 30 30 30 30 30 30 30 30 0
1 30 30 30 30 30 31 31 31 31 31 31 0
1 31 31 31 31 31 31 31 31 31 31 31 0
1 32 32 32 32 32 32 32 32 32 32 32 0
1 32 32 32 32 32 33 33 33 33 33 33 0
1 33 33 33 33 33 33 33 33 34 34 34 0
1 34 34 34 34 34 34 34 34 34 34 34 0
1 35 35 35 35 35 35 35 35 35 36 36 0
1 36 36 36 36 36 36 36 36 36 36 36 0
1 36 36 36 36 37 37 37 37 37 37 37 0
1 37 37 37 37 37 37 37 37 37 37 37 0
1 37 37 37 38 38 38 38 38 38 38 38 0
1 38 38 38 38 38 38 38 38 38 38 38 0
1 38 38 38 38 38 39 39 39 39 39 39 0
1 39 39 39 39 39 39 39 39 39 39 39 0
1 40 40 40 40 40 40 40 40 40 40 40 0
1 40 40 41 41 41 41 41 41 41 41 41 0
1 41 41 41 41 41 41 41 41 41 41 41 0
1 41 41 42 42 42 42 42 42 42 42 42 0
1 42 42 42 42 42 42 42 42 42 42 42 0
1 42 43 43 43 43 43 43 43 43 43 43 0
1 43 43 43 43 43 43 43 43 43 43 43 0
1 44 44 44 44 44 44 44 44 44 44 44 0
1 44 44 44 44 44 44 44 44 44 44 45 0
1 45 45 45 45 45 45 45 45 45 45 45 0
1 45 45 45 45 45 45 45 45 45 45 46 0
1 46 46 46 46 46 46 46 46 46 46 46 0
1 46 46 46 46 46 46 46 47 47 47 47 0
1 47 47 47 47 47 47 47 47 47 47 47 0
1 47 47 47 47 47 47 47 47 47 48 48 0
1 48 48 48 48 48 48 48 48 48 48 48 0
1 48 48 48 48 48 48 49 49 49 49 49 0
1 49 49 49 49 49 49 49 49 49 49 49 0
1 49 49 49 49 49 50 50 50 50 50 50 0
1 50 50 50 50 50 50 50 50 50 50 51 0
1 51 51 51 51 51 51 51 51 51 51 51 0
1 51 51 51 51 51 52 52 52 52 52 52 0
1 52 52 52 52 52 52 52 52 52 52 52 0
1 52 52 52 52 52 52 52 52 52 52 53 0
1 53 53 53 53 53 53 53 53 53 53 53 0
1 53 53 53 53 53 53 53 53 53 54 54 0
1 54 54 54 54 54 54 54 54 54 55 55 0
1 55 55 55 55 55 55 55 55 55 56 56 0
1 56 56 56 56 56 56 56 56 56 56 56 0
1 56 56 56 56 56 56 56 56 56 56 56 0
1 57 57 57 57 57 57 57 57 57 57 57 0
1 57 57 57 57 57 57 57 57 57 58 58 0
1 58 58 58 58 58 58 58 58 58 58 58 0
1 58 58 58 58 58 58 58 58 58 58 59 0
1 59 59 59 59 59 59 59 59 59 59 59 0
1 59 59 59 60 60 60 60 60 60 60 60 0
1 60 60 60 60 60 60 60 60 60 60 60 0
1 60 60 60 61 61 61 61 61 61 61 61 0
1 61 61 61 61 61 61 61 61 61 61 61 0
1 62 62 62 62 62 62 62 62 62 62 62 0
1 62 62 62 62 62 62 62 62 62 62 62 0
1 63 63 63 63 63 63 63 63 63 63 63 0
1 63 63 63 63 63 63 63 63 64 64 64 0
1 64 64 64 64 64 64 64 64 64 64 64 0
1 65 65 65 65 65 65 65 65 65 65 65 0
1 65 65 65 65 65 65 65 65 65 65 65 0
1 66 66 66 66 66 66 66 66 66 66 66 0
1 66 66 66 66 67 67 67 67 67 67 67 0
1 67 67 67 67 67 67 67 67 68 68 68 0
1 68 68 68 68 68 68 68 68 68 68 68 0
1 68 68 68 69 69 69 69 69 69 69 69 0
1 69 69 69 69 69 69 69 69 69 69 70 0
1 70 70 70 70 70 70 70 70 70 70 70 0
1 70 70 70 70 71 71 71 71 71 71 71 0
1 71 71 71 71 71 71 71 71 71 71 71 0
1 71 71 71 72 72 72 72 72 72 72 72 0
1 72 72 72 72 72 72 72 72 72 72 73 0
1 73 73 73 73 73 73 73 73 73 73 73 0
1 73 73 73 73 73 73 73 74 74 74 74 0
1 74 74 74 74 74 74 74 74 74 75 75 0
1 75 75 75 75 75 75 75 75 75 75 75 0
1 76 76 76 76 76 76 76 76 76 76 76 0
1 76 76 76 76 76 76 76 76 77 77 77 0
1 77 77 77 77 77 77 77 77 77 77 77 0
1 77 77 77 77 77 77 77 77 77 77 77 0
1 78 78 78 78 78 78 78 78 78 78 78 0
1 78 78 78 78 78 78 78 78 78 78 78 0
1 78 78 78 79 79 79 79 79 79 79 79 0
1 80 80 80 80 80 80 80 80 80 80 80 0
1 80 80 80 81 81 81 81 81 81 81 81 0
1 81 81 81 81 81 81 81 81 81 81 81 0
1 81 81 82 82 82 82 82 82 82 82 82 0
1 82 82 82 82 82 83 83 83 83 83 83 0
1 83 83 83 83 83 83 83 83 83 83 83 0
1 84 84 84 84 84 84 84 84 84 84 84 0
1 84 84 84 84 84 84 84 85 85 85 85 0
1 85 85 85 85 85 85 85 85 85 85 85 0
1 85 85 85 85 86 86 86 86 86 86 86 0
1 86 86 86 86 86 86 86 86 86 86 86 0
1 86 86 86 86 87 87 87 87 87 87 87 0
1 87 87 87 87 87 87 87 87 87 87 87 0
1 87 88 88 88 88 88 88 88 88 88 88 0
1 88 88 88 88 88 88 88 88 88 88 88 0
1 88 88 88 89 89 89 89 89 89 89 89 0
1 89 89 89 89 89 89 89 89 90 90 90 0
1 90 90 90 90 90 90 90 90 90 90 90 0
1 90 90 91 91 91 91 91 91 91 91 91 0
1 91 91 91 91 91 91 91 91 91 91 91 0
1 91 91 92 92 92 92 92 92 92 92 92 0
1 92 92 92 92 92 92 92 92 92 92 92 0
1 92 92 92 92 92 93 93 93 93 93 93 0
1 93 93 93 93 93 93 93 93 93 93 93 0
1 94 94 94 94 94 94 94 94 94 94 94 0
1 94 94 94 94 94 94 94 94 94 94 94 0
1 95 95 95 95 95 95 95 95 95 95 95 0
1 95 95 95 95 95 95 95 95 95 95 95 0
1 96 96 96 96 96 96 96 96 96 96 96 0
1 96 96 96 96 96 96 96 96 96 96 96 0
1 96 96 96 96 97 97 97 97 97 97 97 0
1 97 97 97 97 97 97 97 97 97 97 98 0
1 98 98 98 98 98 98 98 98 98 98 98 0
1 98 98 98 98 98 98 98 98 99 99 99 0
1 99 99 99 99 99 99 99 99 99 99 99 0
1 99 99 99 100 100 100 100 100 100 100 100 0
1 100 100 100 100 100 100 100 100 100 100 100 0
1 100 100 100 100 100 100 100 0
1  0
1 37 55 187 207 229 307 320 356 357 391 403 0
1 559 590 704 819 925 965 1003 1098 1099 1117 1129 0
1 1203 1238 1285 1356 1430 1431 1438 1624 1628 1649 1659 0
1 1696 1781 1893 1898 1929 1956 0
1  0
1 26 57 81 118 326 346 359 408 410 464 560 0
1 673 765 768 872 885 940 947 958 972 1029 1079 0
1 1205 1226 1246 1286 1303 1304 1328 1329 1345 1355 1376 0
1 1413 1520 1579 1606 1622 1625 1689 1696 1987 1991 0
1  0
1 100 129 190 214 232 251 291 306 321 337 345 0
1 530 537 574 750 874 890 1059 1124 1137 1193 1403 0
1 1560 1592 1616 1620 1644 1670 1686 1832 1845 1915 1934 0
1  0
1 66 105 111 129 154 230 382 401 466 507 562 0
1 617 826 851 925 1058 1186 1205 1348 1378 1379 1389 0
1 1498 1501 1545 1566 1577 1599 1603 1611 1643 1693 1822 0
1 1857 1923 1932 1984 0
1  0
1 77 113 133 134 212 246 342 378 407 420 465 0
1 533 549 624 653 656 783 938 1157 1213 1292 1348 0
1 1621 1631 1718 1751 1777 1855 1863 1975 0
1  0
1 16 34 125 147 235 298 343 423 504 525 535 0
1 789 857 955 1002 1007 1008 1062 1075 1090 1102 1306 0
1 1344 1383 1427 1451 1477 1494 1501 1530 1623 1691 1744 0
1 1842 1871 1915 0
1  0
1 56 85 156 196 278 350 432 472 510 574 615 0
1 666 691 698 700 805 825 856 987 1011 1035 1070 0
1 1118 1119 1156 1181 1191 1221 1292 1313 1316 1318 1319 0
1 1358 1455 1458 1525 1637 1689 1826 1848 1850 1853 1867 0
1 1942 0
